out/3x5_in-2025_04_17-23_06_50/stage_1_recipes.param.solution
language ESSENCE' 1.0
letting assembler_rates be [50]
letting assembler_recipes be [2]
letting consuming be [[100, 0]]
letting inserters_in be [[2, 0]]
letting inserters_out be [1]
letting num_assemblers be 1
